1011000000010010011000011011110011100000110110000111001011011111101100000001010100010100000110110010111110011010110011000110010010101101000010110001010110100100000011001101010011001101110011001001000101001111001011001000001010110111001100101110110100001010110100110001111101001111010110101110001010001111011111000101010010101011101110001000001001000110111100101111110011011100000101110011101001100110001111011000100110111110010001100111110011001001001100100010111010000111000000010010001101011110111111010100010000000010100010100001101111111101111100111000100000010100011111010001001011011100101010010010011101011011010101011101111101110011111101000001000010011001000101010011001011100110111011111101010100110101101101111101101100110101100101101111101101000001100101101110000101101110001111000100001101100011100000100010111100010101011100001000110010110110110101101010010111011000101010010101000000001100101011011110101110000000000100011110101001110000010011110001110010111000011000010000011000110010110100101110010010011010110001110010000100000001101100100101001001000100011011010100011000110010100000100001001011001010001011100011011010011101110110010001101000000110101001111110111101001110001111000001011101000010001011111111000011111011011101100000100001010011111110111101001010100111110001010010111101111110000000011011010100110110110000111001100001010111110100100100001000111001011111011100100010001000